733,353
588,609
805,501
401,188
684,882
107,653
279,173
503,565
129,529
78,925
846,96
337,129
927,204
145,784
544,666
524,890
958,879
320,548
916,176
214,944
867,357
344,348
925,870
498,681
211,392
517,709
772,191
969,204
912,281
433,495
934,473
244,764
603,290
86,125
805,957
717,279
918,562
367,395
91,726
439,972
309,164
675,25
294,789
924,513
730,435
277,885
439,960
481,623
628,928
161,576
611,927
215,370
710,951
499,101
731,68
602,292
179,349
108,677
404,85
737,814
292,805
422,199
339,245
224,411
183,565
465,122
392,773
382,829
788,78
414,809
569,843
865,865
443,48
791,78
922,766

2140
1653
1957
1898
2052
1934
1937
2122
1953
